c This Formular is generated by mcnf
c
c    horn? no 
c    forced? no 
c    mixed sat? no 
c    clause length = 3 
c
p cnf 20  91 
 -12 8 -1 0
1 4 9 0
2 -6 19 0
3 -6 -1 0
1 -17 -18 0
8 -4 -6 0
-3 -16 -15 0
-15 19 -3 0
-19 4 5 0
11 -10 -1 0
-7 -17 13 0
18 7 -19 0
-3 4 -20 0
-15 -8 3 0
-5 6 -7 0
-20 11 16 0
-16 -2 -14 0
-11 14 1 0
-9 -4 12 0
18 -2 -14 0
-4 13 -8 0
%
0

26 31 13 88 62 35 92 80 1 1 22 66 98 18 64 26 52 94 70 58
